Ge-bulk
5.682
0.5 0.5 0.0
0.0 0.5 0.50000000000000000000
0.5 0.0 0.50000000000000000000
2
Direct
0.000000000000000 0.000000000000000 0.000000000000000
0.250000000000000 0.250000000000000 0.25
