Ge-bulk                                 
   5.68200000000000     
     0.4974711611015207    0.4974711611015207    0.0000000000000000
     0.0000000000000000    0.4974711611015207    0.4974711611015207
     0.4974711611015207   -0.0000000000000000    0.4974711611015207
   Ge
     2
Direct
 -0.0000000000000000 -0.0000000000000000 -0.0000000000000000
  0.2500000000000000  0.2500000000000000  0.2500000000000000
 
  0.00000000E+00  0.00000000E+00  0.00000000E+00
  0.00000000E+00  0.00000000E+00  0.00000000E+00
