Parameters to Generate KPOINTS (Don't Edit This Line):   0.040  0.040   29   83   4  19  24  27  13
   112
Reciprocal lattice
    0.00000000000000    0.00000000000000    0.00000000000000     1
    0.12500000000000    0.00000000000000    0.00000000000000     8
    0.25000000000000    0.00000000000000    0.00000000000000     8
    0.37500000000000    0.00000000000000    0.00000000000000     8
    0.50000000000000    0.00000000000000    0.00000000000000     4
    0.12500000000000    0.12500000000000    0.00000000000000     6
    0.25000000000000    0.12500000000000    0.00000000000000    24
    0.37500000000000    0.12500000000000    0.00000000000000    24
    0.50000000000000    0.12500000000000    0.00000000000000    24
   -0.37500000000000    0.12500000000000    0.00000000000000    24
   -0.25000000000000    0.12500000000000    0.00000000000000    24
   -0.12500000000000    0.12500000000000    0.00000000000000    12
    0.25000000000000    0.25000000000000    0.00000000000000     6
    0.37500000000000    0.25000000000000    0.00000000000000    24
    0.50000000000000    0.25000000000000    0.00000000000000    24
   -0.37500000000000    0.25000000000000    0.00000000000000    24
   -0.25000000000000    0.25000000000000    0.00000000000000    12
    0.37500000000000    0.37500000000000    0.00000000000000     6
    0.50000000000000    0.37500000000000    0.00000000000000    24
   -0.37500000000000    0.37500000000000    0.00000000000000    12
    0.50000000000000    0.50000000000000    0.00000000000000     3
    0.37500000000000    0.25000000000000    0.12500000000000    24
    0.50000000000000    0.25000000000000    0.12500000000000    48
   -0.37500000000000    0.25000000000000    0.12500000000000    24
    0.50000000000000    0.37500000000000    0.12500000000000    24
   -0.37500000000000    0.37500000000000    0.12500000000000    48
   -0.25000000000000    0.37500000000000    0.12500000000000    24
   -0.37500000000000    0.50000000000000    0.12500000000000    12
   -0.25000000000000    0.50000000000000    0.25000000000000     6
    0.50000000000000    0.25000000000000    0.75000000000000     0
    0.50000000000000    0.26388888888889    0.73611111111111     0
    0.50000000000000    0.27777777777778    0.72222222222222     0
    0.50000000000000    0.29166666666667    0.70833333333333     0
    0.50000000000000    0.30555555555556    0.69444444444444     0
    0.50000000000000    0.31944444444444    0.68055555555556     0
    0.50000000000000    0.33333333333333    0.66666666666667     0
    0.50000000000000    0.34722222222222    0.65277777777778     0
    0.50000000000000    0.36111111111111    0.63888888888889     0
    0.50000000000000    0.37500000000000    0.62500000000000     0
    0.50000000000000    0.38888888888889    0.61111111111111     0
    0.50000000000000    0.40277777777778    0.59722222222222     0
    0.50000000000000    0.41666666666667    0.58333333333333     0
    0.50000000000000    0.43055555555556    0.56944444444444     0
    0.50000000000000    0.44444444444444    0.55555555555556     0
    0.50000000000000    0.45833333333333    0.54166666666667     0
    0.50000000000000    0.47222222222222    0.52777777777778     0
    0.50000000000000    0.48611111111111    0.51388888888889     0
    0.50000000000000    0.50000000000000    0.50000000000000     0
    0.50000000000000    0.50000000000000    0.50000000000000     0
    0.47826086956522    0.47826086956522    0.47826086956522     0
    0.45652173913043    0.45652173913043    0.45652173913043     0
    0.43478260869565    0.43478260869565    0.43478260869565     0
    0.41304347826087    0.41304347826087    0.41304347826087     0
    0.39130434782609    0.39130434782609    0.39130434782609     0
    0.36956521739130    0.36956521739130    0.36956521739130     0
    0.34782608695652    0.34782608695652    0.34782608695652     0
    0.32608695652174    0.32608695652174    0.32608695652174     0
    0.30434782608696    0.30434782608696    0.30434782608696     0
    0.28260869565217    0.28260869565217    0.28260869565217     0
    0.26086956521739    0.26086956521739    0.26086956521739     0
    0.23913043478261    0.23913043478261    0.23913043478261     0
    0.21739130434783    0.21739130434783    0.21739130434783     0
    0.19565217391304    0.19565217391304    0.19565217391304     0
    0.17391304347826    0.17391304347826    0.17391304347826     0
    0.15217391304348    0.15217391304348    0.15217391304348     0
    0.13043478260870    0.13043478260870    0.13043478260870     0
    0.10869565217391    0.10869565217391    0.10869565217391     0
    0.08695652173913    0.08695652173913    0.08695652173913     0
    0.06521739130435    0.06521739130435    0.06521739130435     0
    0.04347826086957    0.04347826086957    0.04347826086957     0
    0.02173913043478    0.02173913043478    0.02173913043478     0
    0.00000000000000    0.00000000000000    0.00000000000000     0
    0.00000000000000    0.00000000000000    0.00000000000000     0
    0.01923076923077    0.00000000000000    0.01923076923077     0
    0.03846153846154    0.00000000000000    0.03846153846154     0
    0.05769230769231    0.00000000000000    0.05769230769231     0
    0.07692307692308    0.00000000000000    0.07692307692308     0
    0.09615384615385    0.00000000000000    0.09615384615385     0
    0.11538461538462    0.00000000000000    0.11538461538462     0
    0.13461538461538    0.00000000000000    0.13461538461538     0
    0.15384615384615    0.00000000000000    0.15384615384615     0
    0.17307692307692    0.00000000000000    0.17307692307692     0
    0.19230769230769    0.00000000000000    0.19230769230769     0
    0.21153846153846    0.00000000000000    0.21153846153846     0
    0.23076923076923    0.00000000000000    0.23076923076923     0
    0.25000000000000    0.00000000000000    0.25000000000000     0
    0.26923076923077    0.00000000000000    0.26923076923077     0
    0.28846153846154    0.00000000000000    0.28846153846154     0
    0.30769230769231    0.00000000000000    0.30769230769231     0
    0.32692307692308    0.00000000000000    0.32692307692308     0
    0.34615384615385    0.00000000000000    0.34615384615385     0
    0.36538461538462    0.00000000000000    0.36538461538462     0
    0.38461538461538    0.00000000000000    0.38461538461538     0
    0.40384615384615    0.00000000000000    0.40384615384615     0
    0.42307692307692    0.00000000000000    0.42307692307692     0
    0.44230769230769    0.00000000000000    0.44230769230769     0
    0.46153846153846    0.00000000000000    0.46153846153846     0
    0.48076923076923    0.00000000000000    0.48076923076923     0
    0.50000000000000    0.00000000000000    0.50000000000000     0
    0.50000000000000    0.00000000000000    0.50000000000000     0
    0.50000000000000    0.02083333333333    0.52083333333333     0
    0.50000000000000    0.04166666666667    0.54166666666667     0
    0.50000000000000    0.06250000000000    0.56250000000000     0
    0.50000000000000    0.08333333333333    0.58333333333333     0
    0.50000000000000    0.10416666666667    0.60416666666667     0
    0.50000000000000    0.12500000000000    0.62500000000000     0
    0.50000000000000    0.14583333333333    0.64583333333333     0
    0.50000000000000    0.16666666666667    0.66666666666667     0
    0.50000000000000    0.18750000000000    0.68750000000000     0
    0.50000000000000    0.20833333333333    0.70833333333333     0
    0.50000000000000    0.22916666666667    0.72916666666667     0
    0.50000000000000    0.25000000000000    0.75000000000000     0
